14      3
2       1       2
0       0       0       0       3       2       3       4
6       1       0       0       2       4
4       0       0       0       3       5
3       0       0       0       2       5
0       0       0       0       0
